assets/logs/4_8x8_clingo/4_8x8_clingo.solution.log

---------------------------------
|  3| 53|  1| 21| 35|  1| 12| 17|
---------------------------------
|  0| 23|  5|  1| 14| 19|  9| 31|
---------------------------------
| 51|  1| 47| 37|  7| 33| 15| 10|
---------------------------------
| 45| 39| 25|  1|  1| 16| 29| 11|
---------------------------------
| 28| 49| 43| 42| 27| 13|  8| 18|
---------------------------------
| 41| 36| 26| 32| 22|  1|  1| 48|
---------------------------------
|  1| 30| 40|  2| 44| 50| 20|  6|
---------------------------------
| 38|  1| 34| 24|  0|  4| 46| 52|
---------------------------------

| n = 8 | k = 10 | coverage = 62, 96.875%
 Time 299.996
 Name 4_8x8_clingo

