assets/logs/4_8x8_clingo/4_8x8_clingo.log
clingo version 5.4.0
Reading from ...sets/logs/4_8x8_clingo/knights_tour.lp ...
Solving...
Answer: 1
occ(1,4,4) occ(1,8,2) occ(1,6,7) occ(1,4,5) occ(1,7,1) occ(1,3,2) occ(1,1,3) occ(1,1,6) occ(1,2,4) occ(1,6,6) occ(2,7,4) occ(3,1,1) coverage(6)
Optimization: -6
Answer: 2
occ(1,4,4) occ(1,8,2) occ(1,6,7) occ(1,4,5) occ(1,7,1) occ(1,3,2) occ(1,1,3) occ(1,1,6) occ(1,2,4) occ(1,6,6) occ(2,7,4) occ(3,1,1) coverage(7) occ(6,7,8) occ(4,8,6)
Optimization: -7
Answer: 3
occ(1,4,4) occ(1,8,2) occ(1,6,7) occ(1,4,5) occ(1,7,1) occ(1,3,2) occ(1,1,3) occ(1,1,6) occ(1,2,4) occ(1,6,6) occ(2,7,4) occ(3,1,1) coverage(27) occ(7,1,5) occ(17,1,8) occ(23,1,7) occ(5,2,3) occ(9,2,7) occ(19,2,6) occ(20,2,2) occ(25,2,5) occ(15,3,7) occ(21,3,8) occ(22,3,4) occ(28,3,5) occ(48,3,1) occ(8,4,2) occ(11,4,6) occ(18,4,1) occ(26,4,7) occ(50,4,3) occ(4,5,3) occ(13,5,8) occ(24,5,5) occ(30,5,6) occ(46,5,2) occ(52,5,1) occ(6,6,1) occ(10,6,3) occ(16,6,2) occ(32,6,8) occ(38,6,5) occ(12,7,5) occ(34,7,6) occ(40,7,7) occ(44,7,3) occ(14,8,3) occ(36,8,4) occ(42,8,5)
Optimization: -27
Answer: 4
occ(1,4,4) occ(1,8,2) occ(1,6,7) occ(1,4,5) occ(1,7,1) occ(1,3,2) occ(1,1,3) occ(1,1,6) occ(1,2,4) occ(1,6,6) occ(2,7,4) occ(3,1,1) coverage(29) occ(7,1,5) occ(17,1,8) occ(23,1,7) occ(5,2,3) occ(9,2,7) occ(19,2,6) occ(20,2,2) occ(25,2,5) occ(15,3,7) occ(21,3,8) occ(22,3,4) occ(27,3,3) occ(28,3,5) occ(48,3,1) occ(8,4,2) occ(11,4,6) occ(18,4,1) occ(26,4,7) occ(50,4,3) occ(4,5,3) occ(13,5,8) occ(24,5,5) occ(30,5,6) occ(46,5,2) occ(52,5,1) occ(6,6,1) occ(10,6,3) occ(16,6,2) occ(32,6,8) occ(38,6,5) occ(12,7,5) occ(34,7,6) occ(40,7,7) occ(44,7,3) occ(14,8,3) occ(36,8,4) occ(42,8,5)
Optimization: -29
Answer: 5
occ(1,4,4) occ(1,8,2) occ(1,6,7) occ(1,4,5) occ(1,7,1) occ(1,3,2) occ(1,1,3) occ(1,1,6) occ(1,2,4) occ(1,6,6) occ(2,7,4) occ(3,1,1) coverage(31) occ(7,1,5) occ(17,1,8) occ(23,1,7) occ(29,1,4) occ(5,2,3) occ(9,2,7) occ(19,2,6) occ(20,2,2) occ(25,2,5) occ(15,3,7) occ(21,3,8) occ(22,3,4) occ(27,3,3) occ(28,3,5) occ(48,3,1) occ(8,4,2) occ(11,4,6) occ(18,4,1) occ(26,4,7) occ(50,4,3) occ(4,5,3) occ(13,5,8) occ(24,5,5) occ(30,5,6) occ(46,5,2) occ(52,5,1) occ(6,6,1) occ(10,6,3) occ(16,6,2) occ(32,6,8) occ(38,6,5) occ(12,7,5) occ(34,7,6) occ(40,7,7) occ(44,7,3) occ(14,8,3) occ(36,8,4) occ(42,8,5)
Optimization: -31
Answer: 6
occ(1,4,4) occ(1,8,2) occ(1,6,7) occ(1,4,5) occ(1,7,1) occ(1,3,2) occ(1,1,3) occ(1,1,6) occ(1,2,4) occ(1,6,6) occ(2,7,4) occ(3,1,1) coverage(33) occ(7,1,5) occ(17,1,8) occ(23,1,7) occ(5,2,3) occ(9,2,7) occ(19,2,6) occ(20,2,2) occ(25,2,5) occ(29,2,1) occ(15,3,7) occ(21,3,8) occ(22,3,4) occ(27,3,3) occ(28,3,5) occ(48,3,1) occ(11,4,6) occ(18,4,1) occ(26,4,7) occ(31,4,2) occ(4,5,3) occ(8,5,1) occ(13,5,8) occ(24,5,5) occ(30,5,6) occ(46,5,2) occ(10,6,3) occ(16,6,2) occ(32,6,8) occ(38,6,5) occ(6,7,2) occ(12,7,5) occ(34,7,6) occ(40,7,7) occ(44,7,3) occ(14,8,3) occ(36,8,4) occ(42,8,5)
Optimization: -33
Answer: 7
occ(1,4,4) occ(1,8,2) occ(1,6,7) occ(1,4,5) occ(1,7,1) occ(1,3,2) occ(1,1,3) occ(1,1,6) occ(1,2,4) occ(1,6,6) occ(2,7,4) occ(3,1,1) coverage(35) occ(7,1,5) occ(17,1,8) occ(23,1,7) occ(5,2,3) occ(9,2,7) occ(19,2,6) occ(20,2,2) occ(25,2,5) occ(29,2,1) occ(15,3,7) occ(21,3,8) occ(22,3,4) occ(27,3,3) occ(28,3,5) occ(48,3,1) occ(11,4,6) occ(18,4,1) occ(26,4,7) occ(31,4,2) occ(4,5,3) occ(8,5,1) occ(13,5,8) occ(24,5,5) occ(30,5,6) occ(46,5,2) occ(10,6,3) occ(16,6,2) occ(32,6,8) occ(33,6,1) occ(38,6,5) occ(6,7,2) occ(12,7,5) occ(34,7,6) occ(40,7,7) occ(44,7,3) occ(14,8,3) occ(36,8,4) occ(42,8,5)
Optimization: -35
Answer: 8
occ(1,4,4) occ(1,8,2) occ(1,6,7) occ(1,4,5) occ(1,7,1) occ(1,3,2) occ(1,1,3) occ(1,1,6) occ(1,2,4) occ(1,6,6) occ(2,7,4) occ(3,1,1) coverage(41) occ(7,1,5) occ(17,1,8) occ(23,1,7) occ(29,1,2) occ(54,1,4) occ(5,2,3) occ(9,2,7) occ(19,2,6) occ(25,2,5) occ(52,2,2) occ(15,3,7) occ(21,3,8) occ(22,3,4) occ(27,3,3) occ(28,3,5) occ(31,3,1) occ(11,4,6) occ(18,4,1) occ(26,4,7) occ(40,4,2) occ(50,4,3) occ(8,5,7) occ(13,5,8) occ(20,5,3) occ(24,5,5) occ(30,5,6) occ(33,5,2) occ(38,5,4) occ(48,5,1) occ(10,6,5) occ(16,6,2) occ(32,6,8) occ(35,6,4) occ(42,6,3) occ(6,7,8) occ(12,7,3) occ(36,7,5) occ(39,7,7) occ(46,7,2) occ(4,8,6) occ(14,8,1) occ(34,8,7) occ(37,8,5) occ(44,8,4)
Optimization: -41
Answer: 9
occ(1,4,4) occ(1,8,2) occ(1,6,7) occ(1,4,5) occ(1,7,1) occ(1,3,2) occ(1,1,3) occ(1,1,6) occ(1,2,4) occ(1,6,6) occ(2,7,4) occ(3,1,1) coverage(43) occ(7,1,5) occ(17,1,8) occ(23,1,7) occ(29,1,2) occ(54,1,4) occ(5,2,3) occ(9,2,7) occ(19,2,6) occ(25,2,5) occ(52,2,2) occ(15,3,7) occ(21,3,8) occ(22,3,4) occ(27,3,3) occ(28,3,5) occ(31,3,1) occ(11,4,6) occ(18,4,1) occ(26,4,7) occ(40,4,2) occ(50,4,3) occ(13,5,8) occ(20,5,3) occ(24,5,5) occ(30,5,6) occ(33,5,2) occ(38,5,4) occ(39,5,7) occ(48,5,1) occ(6,6,5) occ(16,6,2) occ(32,6,8) occ(35,6,4) occ(42,6,3) occ(8,7,7) occ(12,7,3) occ(36,7,5) occ(37,7,6) occ(41,7,8) occ(46,7,2) occ(4,8,6) occ(10,8,5) occ(14,8,1) occ(34,8,7) occ(44,8,4)
Optimization: -43
Answer: 10
occ(1,4,4) occ(1,8,2) occ(1,6,7) occ(1,4,5) occ(1,7,1) occ(1,3,2) occ(1,1,3) occ(1,1,6) occ(1,2,4) occ(1,6,6) occ(2,7,4) occ(3,1,1) coverage(45) occ(7,1,5) occ(17,1,8) occ(23,1,7) occ(29,1,2) occ(54,1,4) occ(5,2,3) occ(9,2,7) occ(19,2,6) occ(25,2,5) occ(43,2,8) occ(52,2,2) occ(15,3,7) occ(21,3,8) occ(22,3,4) occ(27,3,3) occ(28,3,5) occ(31,3,1) occ(41,3,6) occ(11,4,6) occ(18,4,1) occ(26,4,7) occ(40,4,2) occ(50,4,3) occ(13,5,8) occ(20,5,3) occ(24,5,5) occ(30,5,6) occ(33,5,2) occ(38,5,4) occ(39,5,7) occ(48,5,1) occ(6,6,5) occ(16,6,2) occ(32,6,8) occ(35,6,4) occ(42,6,3) occ(8,7,7) occ(12,7,3) occ(36,7,5) occ(37,7,6) occ(46,7,2) occ(4,8,6) occ(10,8,5) occ(14,8,1) occ(34,8,7) occ(44,8,4)
Optimization: -45
Answer: 11
occ(1,4,4) occ(1,8,2) occ(1,6,7) occ(1,4,5) occ(1,7,1) occ(1,3,2) occ(1,1,3) occ(1,1,6) occ(1,2,4) occ(1,6,6) occ(2,7,4) occ(3,1,1) coverage(46) occ(7,1,5) occ(26,1,4) occ(37,1,2) occ(45,1,8) occ(5,2,3) occ(9,2,7) occ(20,2,8) occ(24,2,6) occ(28,2,2) occ(41,2,5) occ(11,3,5) occ(18,3,6) occ(35,3,1) occ(39,3,3) occ(43,3,7) occ(15,4,6) occ(22,4,7) occ(30,4,1) occ(42,4,3) occ(8,5,7) occ(13,5,4) occ(16,5,5) occ(17,5,8) occ(21,5,6) occ(32,5,3) occ(33,5,2) occ(44,5,1) occ(10,6,5) occ(23,6,8) occ(31,6,4) occ(34,6,1) occ(40,6,2) occ(6,7,8) occ(14,7,6) occ(19,7,7) occ(27,7,5) occ(36,7,3) occ(4,8,6) occ(12,8,4) occ(25,8,7) occ(29,8,3) occ(38,8,1)
Optimization: -46
Answer: 12
occ(1,4,4) occ(1,8,2) occ(1,6,7) occ(1,4,5) occ(1,7,1) occ(1,3,2) occ(1,1,3) occ(1,1,6) occ(1,2,4) occ(1,6,6) occ(2,7,4) occ(3,1,1) coverage(48) occ(7,1,5) occ(12,1,7) occ(33,1,4) occ(5,2,3) occ(9,2,7) occ(14,2,5) occ(26,2,1) occ(31,2,2) occ(35,2,6) occ(10,3,6) occ(15,3,5) occ(16,3,7) occ(19,3,1) occ(24,3,3) occ(37,3,4) occ(11,4,8) occ(17,4,3) occ(20,4,6) occ(28,4,2) occ(29,4,1) occ(41,4,7) occ(8,5,7) occ(13,5,6) occ(18,5,8) occ(21,5,2) occ(22,5,4) occ(32,5,3) occ(39,5,5) occ(51,5,1) occ(27,6,2) occ(30,6,1) occ(34,6,5) occ(40,6,4) occ(43,6,8) occ(6,7,8) occ(23,7,3) occ(36,7,7) occ(44,7,5) occ(45,7,6) occ(49,7,2) occ(4,8,6) occ(25,8,1) occ(38,8,5) occ(42,8,3) occ(46,8,7) occ(47,8,4)
Optimization: -48
Answer: 13
occ(1,4,4) occ(1,8,2) occ(1,6,7) occ(1,4,5) occ(1,7,1) occ(1,3,2) occ(1,1,3) occ(1,1,6) occ(1,2,4) occ(1,6,6) occ(2,7,4) occ(3,1,1) coverage(49) occ(7,1,5) occ(17,1,8) occ(21,1,4) occ(40,1,7) occ(45,1,2) occ(5,2,3) occ(9,2,7) occ(19,2,6) occ(23,2,2) occ(38,2,5) occ(41,2,1) occ(48,2,8) occ(15,3,7) occ(25,3,4) occ(32,3,5) occ(42,3,8) occ(43,3,3) occ(46,3,6) occ(47,3,1) occ(11,4,8) occ(26,4,3) occ(29,4,1) occ(30,4,7) occ(36,4,6) occ(39,4,2) occ(13,5,6) occ(14,5,2) occ(24,5,1) occ(27,5,3) occ(28,5,5) occ(34,5,4) occ(44,5,7) occ(6,6,5) occ(16,6,4) occ(31,6,2) occ(37,6,3) occ(8,7,7) occ(12,7,3) occ(18,7,6) occ(22,7,2) occ(35,7,5) occ(4,8,6) occ(10,8,5) occ(20,8,4) occ(33,8,3)
Optimization: -49
Answer: 14
occ(1,4,4) occ(1,8,2) occ(1,6,7) occ(1,4,5) occ(1,7,1) occ(1,3,2) occ(1,1,3) occ(1,1,6) occ(1,2,4) occ(1,6,6) occ(2,7,4) occ(3,1,1) coverage(50) occ(7,1,5) occ(23,1,7) occ(33,1,4) occ(38,1,8) occ(5,2,3) occ(9,2,7) occ(21,2,5) occ(31,2,2) occ(40,2,6) occ(44,2,8) occ(19,3,3) occ(25,3,8) occ(29,3,4) occ(35,3,5) occ(36,3,7) occ(46,3,6) occ(11,4,8) occ(20,4,2) occ(27,4,6) occ(37,4,3) occ(42,4,7) occ(8,5,7) occ(13,5,6) occ(16,5,3) occ(17,5,2) occ(22,5,4) occ(34,5,8) occ(39,5,1) occ(48,5,5) occ(10,6,5) occ(15,6,4) occ(18,6,1) occ(24,6,2) occ(41,6,3) occ(47,6,8) occ(6,7,8) occ(14,7,2) occ(28,7,3) occ(32,7,7) occ(43,7,5) occ(49,7,6) occ(4,8,6) occ(12,8,4) occ(26,8,1) occ(30,8,5) occ(45,8,7) occ(51,8,8)
Optimization: -50
Answer: 15
occ(1,4,4) occ(1,8,2) occ(1,6,7) occ(1,4,5) occ(1,7,1) occ(1,3,2) occ(1,1,3) occ(1,1,6) occ(1,2,4) occ(1,6,6) occ(2,7,4) occ(3,1,1) coverage(51) occ(7,1,5) occ(15,1,7) occ(25,1,4) occ(38,1,8) occ(50,1,2) occ(5,2,3) occ(9,2,7) occ(17,2,5) occ(23,2,2) occ(40,2,6) occ(13,3,6) occ(21,3,4) occ(24,3,3) occ(27,3,5) occ(36,3,7) occ(48,3,1) occ(11,4,8) occ(16,4,2) occ(19,4,6) occ(22,4,1) occ(42,4,7) occ(46,4,3) occ(8,5,7) occ(14,5,4) occ(20,5,3) occ(26,5,2) occ(29,5,6) occ(34,5,8) occ(39,5,1) occ(44,5,5) occ(10,6,5) occ(18,6,1) occ(28,6,4) occ(31,6,8) occ(41,6,3) occ(47,6,2) occ(6,7,8) occ(12,7,3) occ(32,7,7) occ(33,7,6) occ(37,7,2) occ(43,7,5) occ(4,8,6) occ(30,8,5) occ(35,8,4) occ(45,8,3) occ(49,8,1)
Optimization: -51
Answer: 16
occ(1,4,4) occ(1,8,2) occ(1,6,7) occ(1,4,5) occ(1,7,1) occ(1,3,2) occ(1,1,3) occ(1,1,6) occ(1,2,4) occ(1,6,6) occ(2,7,4) occ(3,1,1) coverage(52) occ(7,1,5) occ(13,1,4) occ(23,1,7) occ(38,1,8) occ(5,2,3) occ(9,2,7) occ(15,2,2) occ(21,2,5) occ(40,2,6) occ(44,2,8) occ(11,3,5) occ(17,3,4) occ(24,3,3) occ(25,3,8) occ(36,3,7) occ(46,3,6) occ(6,4,3) occ(16,4,2) occ(19,4,6) occ(22,4,1) occ(42,4,7) occ(48,4,8) occ(4,5,5) occ(14,5,4) occ(20,5,3) occ(26,5,2) occ(27,5,7) occ(34,5,8) occ(39,5,1) occ(50,5,6) occ(8,6,2) occ(18,6,1) occ(28,6,4) occ(33,6,5) occ(41,6,3) occ(47,6,8) occ(12,7,3) occ(29,7,8) occ(32,7,7) occ(37,7,2) occ(43,7,5) occ(49,7,6) occ(10,8,1) occ(30,8,5) occ(31,8,6) occ(35,8,4) occ(45,8,7) occ(51,8,8)
Optimization: -52
Answer: 17
occ(1,4,4) occ(1,8,2) occ(1,6,7) occ(1,4,5) occ(1,7,1) occ(1,3,2) occ(1,1,3) occ(1,1,6) occ(1,2,4) occ(1,6,6) occ(2,7,4) occ(3,1,1) coverage(53) occ(7,1,5) occ(15,1,7) occ(21,1,8) occ(26,1,2) occ(41,1,4) occ(5,2,3) occ(9,2,7) occ(17,2,5) occ(23,2,6) occ(30,2,1) occ(39,2,2) occ(51,2,8) occ(13,3,6) occ(19,3,7) occ(24,3,1) occ(25,3,8) occ(28,3,3) occ(38,3,4) occ(43,3,5) occ(11,4,8) occ(22,4,3) occ(27,4,6) occ(32,4,2) occ(37,4,1) occ(49,4,7) occ(8,5,7) occ(18,5,2) occ(29,5,4) occ(36,5,3) occ(40,5,5) occ(44,5,1) occ(45,5,6) occ(10,6,5) occ(20,6,4) occ(34,6,1) occ(35,6,2) occ(42,6,3) occ(47,6,8) occ(6,7,8) occ(12,7,7) occ(16,7,3) occ(31,7,5) occ(46,7,2) occ(50,7,6) occ(4,8,6) occ(14,8,5) occ(33,8,3) occ(48,8,4) occ(52,8,8)
Optimization: -53
Answer: 18
occ(1,4,4) occ(1,8,2) occ(1,6,7) occ(1,4,5) occ(1,7,1) occ(1,3,2) occ(1,1,3) occ(1,1,6) occ(1,2,4) occ(1,6,6) occ(2,7,4) occ(3,1,1) coverage(54) occ(12,1,7) occ(17,1,8) occ(21,1,4) occ(35,1,5) occ(53,1,2) occ(5,2,3) occ(9,2,7) occ(14,2,5) occ(19,2,6) occ(23,2,2) occ(31,2,8) occ(7,3,5) occ(10,3,8) occ(15,3,7) occ(33,3,6) occ(37,3,4) occ(47,3,3) occ(51,3,1) occ(11,4,8) occ(16,4,6) occ(25,4,3) occ(29,4,7) occ(39,4,2) occ(45,4,1) occ(8,5,7) occ(13,5,6) occ(18,5,8) occ(27,5,5) occ(28,5,1) occ(42,5,4) occ(43,5,3) occ(49,5,2) occ(22,6,5) occ(26,6,3) occ(32,6,4) occ(36,6,2) occ(41,6,1) occ(48,6,8) occ(6,7,8) occ(20,7,7) occ(30,7,2) occ(40,7,3) occ(44,7,5) occ(50,7,6) occ(4,8,6) occ(24,8,4) occ(34,8,3) occ(38,8,1) occ(46,8,7) occ(52,8,8)
Optimization: -54
*** Info : (clingo): INTERRUPTED by signal!
SATISFIABLE

TIME LIMIT   : 1
Models       : 18+
  Optimum    : unknown
Optimization : -54
Calls        : 1
Time         : 300.000s (Solving: 299.71s 1st Model: 0.00s Unsat: 0.00s)
CPU Time     : 299.996s
